
Gurobi 9.0.1 (linux64) logging started Thu Apr 30 17:49:32 2020

Gurobi Optimizer version 9.0.1 build v9.0.1rc0 (linux64)
Optimize a model with 11327 rows, 12060 columns and 198990 nonzeros
Model fingerprint: 0x8116150c
Variable types: 0 continuous, 12060 integer (12032 binary)
Coefficient statistics:
  Matrix range     [1e+00, 1e+01]
  Objective range  [2e+00, 1e+02]
  Bounds range     [1e+00, 1e+00]
  RHS range        [1e+00, 1e+00]

User MIP start produced solution with objective 1048 (0.26s)
Loaded user MIP start with objective 1048

Presolve removed 928 rows and 1887 columns
Presolve time: 2.71s
Presolved: 10399 rows, 10173 columns, 162246 nonzeros
Variable types: 0 continuous, 10173 integer (10147 binary)

Root simplex log...

Iteration    Objective       Primal Inf.    Dual Inf.      Time
    3488    5.8335016e+02   4.065438e+03   0.000000e+00      5s
    6218    5.9419001e+02   4.632671e+02   0.000000e+00     10s
    8168    5.9934289e+02   1.150636e+03   0.000000e+00     15s
    9954    5.9993978e+02   2.112774e+02   0.000000e+00     20s
   11568    6.0008577e+02   1.831709e+02   0.000000e+00     25s
   12903    6.0013272e+02   1.397350e+02   0.000000e+00     30s
   14389    6.0015685e+02   1.102796e+00   0.000000e+00     35s
   14457    6.0015669e+02   0.000000e+00   0.000000e+00     35s

Root relaxation: objective 6.001567e+02, 14457 iterations, 32.23 seconds

    Nodes    |    Current Node    |     Objective Bounds      |     Work
 Expl Unexpl |  Obj  Depth IntInf | Incumbent    BestBd   Gap | It/Node Time

     0     0  600.15669    0 3418 1048.00000  600.15669  42.7%     -   41s
     0     0  639.29356    0 3521 1048.00000  639.29356  39.0%     -  150s
     0     0  640.63424    0 3430 1048.00000  640.63424  38.9%     -  177s
     0     0  640.64870    0 3477 1048.00000  640.64870  38.9%     -  185s
     0     0  640.64946    0 3466 1048.00000  640.64946  38.9%     -  187s
     0     0  657.88637    0 3259 1048.00000  657.88637  37.2%     -  338s
     0     0  658.07110    0 3239 1048.00000  658.07110  37.2%     -  365s
     0     0  658.07492    0 3171 1048.00000  658.07492  37.2%     -  375s
     0     0  665.98391    0 3310 1048.00000  665.98391  36.5%     -  680s
     0     0  670.59692    0 3328 1048.00000  670.59692  36.0%     -  847s
     0     0  670.75555    0 3280 1048.00000  670.75555  36.0%     -  912s
     0     0  670.76573    0 3291 1048.00000  670.76573  36.0%     -  930s
     0     0  673.38357    0 3439 1048.00000  673.38357  35.7%     - 1223s
     0     0  673.54567    0 3462 1048.00000  673.54567  35.7%     - 1273s
     0     0  673.56652    0 3455 1048.00000  673.56652  35.7%     - 1299s
     0     0  674.88289    0 3381 1048.00000  674.88289  35.6%     - 1450s
     0     0  676.28163    0 3461 1048.00000  676.28163  35.5%     - 1575s
     0     0  676.40716    0 3481 1048.00000  676.40716  35.5%     - 1630s
     0     0  676.44057    0 3480 1048.00000  676.44057  35.5%     - 1658s
     0     0  677.59562    0 3494 1048.00000  677.59562  35.3%     - 1798s
     0     0  677.78533    0 3505 1048.00000  677.78533  35.3%     - 1863s
     0     0  677.83601    0 3523 1048.00000  677.83601  35.3%     - 1916s
     0     0  677.84333    0 3504 1048.00000  677.84333  35.3%     - 1933s
     0     0  678.45507    0 3517 1048.00000  678.45507  35.3%     - 2076s
     0     0  678.68746    0 3524 1048.00000  678.68746  35.2%     - 2171s
     0     0  678.82533    0 3542 1048.00000  678.82533  35.2%     - 2267s
     0     0  678.83885    0 3526 1048.00000  678.83885  35.2%     - 2293s
     0     0  679.20494    0 3548 1048.00000  679.20494  35.2%     - 2413s
     0     0  679.29641    0 3575 1048.00000  679.29641  35.2%     - 2483s
     0     0  679.31849    0 3594 1048.00000  679.31849  35.2%     - 2516s
     0     0  679.71296    0 3558 1048.00000  679.71296  35.1%     - 2677s
     0     0  679.77494    0 3582 1048.00000  679.77494  35.1%     - 2752s
     0     0  679.78308    0 3577 1048.00000  679.78308  35.1%     - 2771s
     0     0  680.38322    0 3541 1048.00000  680.38322  35.1%     - 3065s
     0     0  680.44722    0 3535 1048.00000  680.44722  35.1%     - 3124s
     0     0  680.45932    0 3533 1048.00000  680.45932  35.1%     - 3145s
     0     0  681.25402    0 3533 1048.00000  681.25402  35.0%     - 3290s
     0     0  681.38110    0 3562 1048.00000  681.38110  35.0%     - 3360s
     0     0  681.47953    0 3584 1048.00000  681.47953  35.0%     - 3428s
     0     0  681.48827    0 3568 1048.00000  681.48827  35.0%     - 3449s
     0     0  681.67584    0 3510 1048.00000  681.67584  35.0%     - 3532s
     0     0  681.67584    0 3510 1048.00000  681.67584  35.0%     - 3550s

Cutting planes:
  Gomory: 1
  MIR: 75
  StrongCG: 2
  Zero half: 75
  RLT: 2302

Explored 1 nodes (561093 simplex iterations) in 3600.02 seconds
Thread count was 1 (of 40 available processors)

Solution count 1: 1048 

Time limit reached
Best objective 1.048000000000e+03, best bound 6.820000000000e+02, gap 34.9237%

User-callback calls 5395, time in user-callback 0.01 sec
